c This Formular was created for testing purposes
c
c    horn? no
c    forced? no
c    mixed sat? no
c    clause length = 3
c
p cnf
3	4	5
-8	11	12
14	41	16
17	18	19
47	20	9
2	12	-14
-10	6	-5
10	43	17
8	11	13
12	13	14
26	22	15
49	-36	-37
10	4	32
-28	25	23
29	-30	15
-38	45	27
-35	-40	12
19	24	50
-31	33	6
-39	34	36
-55	1	4
46	-59	17
7	-5	10
-54	52	9
24	12	-56
42	-58	19
-57	16	-14
21	48	15
-60	12	31
44	51	-53
%
0
